c FILE: i160-112

c SOURCE: From steinlib

c DESCRIPTION: Steinlib instance with 160 nodes and 812 edges.

p edge 160 812
e 1 25
e 1 43
e 1 65
e 1 84
e 1 87
e 1 107
e 1 109
e 1 118
e 1 119
e 1 141
e 1 143
e 1 144
e 1 149
e 1 153
e 2 46
e 2 64
e 2 74
e 2 93
e 2 105
e 2 157
e 3 24
e 3 31
e 3 33
e 3 36
e 3 37
e 3 55
e 3 69
e 3 76
e 3 96
e 3 118
e 3 131
e 3 138
e 3 146
e 3 147
e 3 154
e 4 27
e 4 30
e 4 74
e 4 80
e 4 88
e 4 98
e 4 105
e 4 114
e 4 120
e 4 150
e 4 158
e 5 18
e 5 25
e 5 29
e 5 43
e 5 74
e 5 75
e 5 83
e 5 102
e 5 107
e 5 110
e 5 139
e 5 145
e 5 152
e 5 157
e 6 22
e 6 29
e 6 32
e 6 37
e 6 44
e 6 51
e 6 56
e 6 64
e 6 91
e 6 103
e 6 137
e 6 144
e 7 11
e 7 55
e 7 68
e 7 74
e 7 79
e 7 86
e 7 102
e 7 126
e 7 133
e 7 147
e 7 148
e 7 158
e 8 17
e 8 90
e 8 104
e 8 107
e 8 124
e 8 132
e 8 140
e 8 153
e 9 10
e 9 32
e 9 42
e 9 52
e 9 60
e 9 62
e 9 73
e 9 98
e 9 137
e 9 140
e 9 156
e 10 31
e 10 40
e 10 54
e 10 63
e 10 75
e 10 94
e 10 115
e 10 130
e 10 131
e 10 147
e 10 149
e 10 151
e 11 28
e 11 49
e 11 60
e 11 87
e 11 91
e 11 102
e 11 114
e 11 117
e 11 123
e 11 155
e 12 16
e 12 43
e 12 47
e 12 66
e 12 136
e 12 141
e 13 30
e 13 70
e 13 71
e 13 72
e 13 78
e 13 91
e 13 103
e 13 132
e 14 89
e 14 134
e 14 157
e 14 158
e 15 18
e 15 44
e 15 68
e 15 94
e 15 105
e 15 106
e 15 110
e 15 128
e 15 138
e 16 77
e 16 94
e 16 99
e 16 114
e 16 120
e 16 139
e 16 143
e 16 147
e 16 152
e 17 31
e 17 51
e 17 66
e 17 89
e 17 90
e 17 93
e 17 111
e 17 148
e 17 150
e 18 26
e 18 29
e 18 45
e 18 70
e 18 108
e 18 111
e 18 116
e 18 118
e 18 132
e 18 137
e 18 148
e 18 149
e 19 54
e 19 56
e 19 64
e 19 66
e 19 75
e 19 78
e 19 81
e 19 85
e 19 89
e 19 129
e 19 146
e 19 151
e 19 155
e 20 39
e 20 42
e 20 54
e 20 68
e 20 91
e 20 102
e 20 147
e 20 149
e 21 52
e 21 81
e 21 124
e 21 139
e 21 160
e 22 76
e 22 135
e 22 138
e 22 142
e 22 144
e 22 153
e 23 50
e 23 69
e 23 79
e 23 100
e 23 128
e 24 36
e 24 77
e 24 88
e 24 93
e 24 102
e 24 116
e 24 120
e 24 126
e 24 137
e 25 51
e 25 58
e 25 73
e 25 83
e 25 104
e 25 113
e 25 115
e 25 130
e 25 160
e 26 33
e 26 61
e 26 87
e 26 94
e 26 120
e 26 133
e 27 28
e 27 68
e 27 80
e 27 125
e 27 126
e 27 131
e 27 137
e 27 140
e 28 29
e 28 54
e 28 61
e 28 65
e 28 69
e 28 72
e 28 83
e 28 104
e 28 120
e 28 125
e 28 146
e 28 147
e 28 159
e 29 44
e 29 54
e 29 69
e 29 93
e 29 105
e 29 108
e 29 117
e 29 134
e 30 38
e 30 64
e 30 81
e 30 86
e 30 131
e 30 146
e 30 157
e 31 47
e 31 69
e 31 75
e 31 84
e 31 91
e 31 92
e 31 104
e 31 105
e 32 33
e 32 61
e 32 68
e 32 70
e 32 117
e 32 125
e 32 130
e 32 134
e 32 139
e 33 44
e 33 82
e 33 83
e 33 89
e 33 100
e 33 109
e 33 131
e 33 143
e 33 150
e 34 61
e 34 67
e 34 78
e 34 96
e 34 103
e 34 106
e 34 113
e 34 128
e 34 149
e 35 53
e 35 59
e 35 70
e 35 89
e 35 93
e 35 120
e 35 122
e 36 46
e 36 51
e 36 99
e 36 127
e 36 133
e 36 148
e 36 153
e 37 59
e 37 64
e 37 80
e 37 99
e 37 108
e 37 134
e 38 41
e 38 67
e 38 97
e 38 114
e 38 137
e 38 143
e 39 47
e 39 55
e 39 77
e 39 83
e 39 92
e 39 110
e 39 121
e 40 82
e 40 104
e 40 113
e 40 138
e 40 144
e 41 42
e 41 45
e 41 82
e 41 99
e 41 130
e 42 67
e 42 74
e 42 100
e 42 135
e 42 158
e 43 50
e 43 103
e 43 128
e 43 145
e 43 153
e 43 155
e 44 59
e 44 90
e 44 95
e 44 109
e 44 114
e 44 126
e 44 140
e 44 149
e 44 158
e 45 50
e 45 89
e 45 133
e 45 134
e 45 148
e 46 65
e 46 67
e 46 94
e 46 95
e 46 104
e 46 113
e 46 141
e 47 50
e 47 67
e 47 113
e 47 117
e 47 128
e 47 129
e 47 141
e 48 77
e 48 83
e 48 92
e 48 93
e 48 96
e 48 115
e 48 117
e 48 123
e 48 151
e 48 158
e 49 56
e 49 72
e 49 107
e 49 109
e 49 110
e 49 134
e 49 146
e 50 52
e 50 55
e 50 88
e 50 94
e 50 95
e 50 100
e 50 135
e 50 147
e 50 152
e 51 76
e 51 84
e 51 90
e 51 114
e 51 135
e 51 144
e 52 63
e 52 83
e 52 98
e 53 62
e 53 116
e 53 122
e 53 135
e 53 149
e 54 67
e 54 76
e 54 81
e 54 86
e 54 93
e 54 107
e 54 108
e 54 127
e 54 140
e 55 66
e 55 70
e 55 73
e 55 83
e 55 84
e 55 86
e 55 89
e 56 81
e 56 96
e 56 98
e 56 101
e 56 107
e 56 129
e 56 131
e 56 132
e 56 151
e 57 80
e 57 139
e 57 159
e 58 63
e 58 73
e 58 83
e 58 122
e 58 158
e 59 92
e 59 95
e 59 103
e 59 105
e 59 117
e 59 118
e 59 143
e 60 85
e 60 95
e 60 97
e 60 109
e 60 115
e 60 119
e 61 96
e 61 101
e 61 105
e 61 138
e 62 74
e 62 94
e 62 99
e 62 141
e 62 156
e 62 157
e 63 74
e 63 102
e 63 106
e 63 150
e 64 75
e 64 97
e 64 99
e 64 117
e 64 139
e 64 149
e 64 157
e 65 92
e 65 97
e 65 160
e 66 70
e 66 72
e 66 99
e 66 105
e 66 116
e 66 145
e 67 90
e 67 106
e 67 111
e 67 118
e 67 142
e 67 149
e 67 150
e 67 155
e 67 156
e 67 157
e 68 77
e 68 78
e 68 90
e 68 113
e 68 123
e 68 138
e 68 151
e 69 73
e 69 90
e 69 119
e 69 120
e 69 128
e 69 129
e 69 154
e 69 160
e 70 132
e 70 136
e 70 137
e 70 146
e 70 148
e 71 72
e 71 73
e 71 89
e 71 94
e 71 97
e 71 100
e 71 111
e 71 132
e 71 141
e 72 126
e 72 132
e 72 148
e 72 150
e 73 126
e 73 155
e 74 106
e 74 127
e 74 132
e 74 135
e 74 150
e 74 152
e 74 154
e 74 155
e 75 76
e 75 110
e 75 112
e 75 118
e 75 144
e 75 148
e 76 79
e 76 86
e 76 101
e 76 137
e 76 149
e 76 155
e 77 84
e 77 98
e 77 114
e 77 128
e 78 80
e 78 97
e 78 102
e 78 105
e 78 112
e 78 113
e 78 146
e 79 137
e 79 138
e 79 143
e 79 144
e 79 152
e 80 108
e 80 123
e 80 127
e 80 142
e 80 149
e 81 89
e 81 97
e 81 106
e 82 87
e 82 108
e 82 114
e 82 144
e 82 153
e 82 156
e 82 157
e 83 85
e 83 88
e 83 92
e 83 113
e 83 121
e 83 141
e 83 144
e 84 102
e 84 103
e 84 105
e 84 118
e 84 129
e 84 130
e 84 152
e 85 90
e 85 105
e 85 106
e 85 113
e 85 116
e 85 139
e 86 101
e 86 131
e 87 91
e 87 94
e 87 96
e 87 106
e 87 121
e 87 130
e 87 131
e 87 134
e 87 142
e 88 101
e 88 125
e 88 132
e 88 152
e 88 154
e 89 106
e 89 107
e 89 123
e 89 124
e 90 92
e 90 129
e 90 133
e 90 144
e 91 106
e 91 129
e 91 157
e 92 93
e 92 96
e 92 129
e 92 148
e 92 153
e 93 125
e 93 128
e 93 134
e 94 106
e 94 107
e 94 118
e 94 119
e 94 124
e 94 141
e 94 147
e 94 148
e 95 97
e 95 98
e 95 137
e 95 154
e 95 160
e 96 106
e 96 107
e 96 141
e 96 156
e 96 157
e 97 117
e 97 132
e 97 140
e 98 152
e 99 116
e 99 119
e 99 150
e 100 107
e 100 108
e 100 125
e 100 134
e 100 143
e 101 119
e 101 124
e 101 142
e 101 147
e 101 159
e 102 106
e 102 140
e 102 147
e 102 158
e 103 111
e 103 112
e 103 132
e 105 129
e 105 134
e 105 154
e 106 107
e 106 142
e 106 145
e 106 149
e 107 121
e 107 125
e 107 139
e 108 114
e 108 120
e 108 157
e 108 160
e 109 114
e 109 155
e 109 160
e 110 116
e 110 127
e 111 118
e 112 124
e 112 141
e 112 148
e 112 151
e 113 153
e 114 123
e 114 133
e 115 119
e 115 127
e 115 158
e 116 135
e 116 143
e 117 159
e 118 159
e 119 122
e 119 127
e 119 137
e 119 151
e 120 127
e 120 132
e 121 127
e 121 137
e 121 143
e 121 149
e 121 156
e 122 129
e 122 130
e 122 132
e 122 133
e 122 134
e 122 154
e 122 156
e 122 160
e 123 130
e 123 135
e 123 138
e 124 130
e 124 136
e 124 137
e 124 143
e 124 157
e 125 128
e 125 143
e 125 157
e 126 151
e 126 154
e 127 141
e 127 156
e 128 131
e 128 147
e 128 156
e 128 159
e 129 154
e 130 145
e 130 155
e 131 152
e 132 143
e 132 145
e 133 146
e 133 152
e 134 139
e 134 152
e 136 138
e 136 149
e 136 154
e 136 159
e 137 157
e 138 148
e 140 143
e 140 148
e 141 160
e 142 156
e 143 148
e 143 149
e 144 152
e 144 158
e 145 155
e 145 157
e 146 147
e 147 157
e 148 155
e 149 155
e 151 156
e 151 157
e 152 157
e 154 158
e 156 160
